/* Objective function */
min: - 0.0054fpdi - 0.0054fpdo + 0.05apdi + 0.05apdo + 0.0002pi + 0.0002po - 0.5fsi - 0.5fso;

apdi = 0.0 hi + -0.0 li + 10.6594 ri + -0.00613 ci + -1.51055 si + -0.0 ti + 0.12359 fTempIi + 0.00537 ami + -120.82193;
asi = 0.0 hi + 0.0 li + -0.0 ri + -0.0 ci + 0.0 si + -0.0 ti + -0.0 fTempIi + 6e-05 ami + -0.02;
aTempOi = 0.0 hi + 0.0 li + 0.2937 ri + -0.03962 ci + -0.04303 si + -0.0 ti + 0.7753 fTempIi + -0.00017 ami + 6.7994;
fpdi = 0.0 hi + 0.0 li + 21.09754 ri + -28.4008 ci + -0.03712 si + -0.0 ti + -1.11854 fTempIi + 0.00015 ami + 588.46294;
fsi = 0.0 hi + 0.0 li + -7e-05 ri + -0.07063 ci + 1e-05 si + -0.0 ti + 0.00043 fTempIi + -0.0 ami + 2.79061;
fTempOi = 0.0 hi + 0.0 li + -0.29032 ri + 0.03918 ci + 0.04239 si + 0.0 ti + 0.2432 fTempIi + -0.00016 ami + 9.7942;
pi = 0.0 hi + -0.0 li + 442.8525 ri + 3.125 ci + -45.6872 si + -0.0 ti + -0.0 fTempIi + -0.0 ami + 2312.719;

apdo = 0.0 ho + 0.0 lo + 12.86323 ro + -0.00079 co + -1.93526 so + 0.0 to + 0.11819 fTempIo + 0.00636 amo + -159.14513;
aso = 0.0 ho + 0.0 lo + -6e-05 ro + -0.0001 co + -2e-05 so + -0.0 to + -0.00011 fTempIo + 6e-05 amo + -0.0148;
aTempOo = 0.0 ho + -0.0 lo + -0.2938 ro + 0.04351 co + 0.0582 so + -0.0 to + 0.77403 fTempIo + 0.00019 amo + -0.92295;
fpdo = 0.0 ho + 0.0 lo + 25.77832 ro + -39.22821 co + 0.06101 so + -0.0 to + -1.36832 fTempIo + -0.00021 amo + 729.12355;
fso = 0.0 ho + 0.0 lo + 0.00015 ro + -0.08427 co + -3e-05 so + -0.0 to + 0.00063 fTempIo + 0.0 amo + 3.03007;
fTempOo = 0.0 ho + 0.0 lo + 0.28791 ro + -0.04369 co + -0.05729 so + -0.0 to + 0.23495 fTempIo + 0.00018 amo + 12.75299;
po = 0.0 ho + 0.0 lo + 382.62222 ro + 3.1 co + -40.81429 so + 0.0 to + -0.0 fTempIo + 0.0 amo + 1549.83016;

/* Variable bounds */
aTempOi > 18.6;
1 =r6i + r8i + r10i + r12i + r14i;
ri =6r6i + 8r8i + 10r10i + 12r12i + 14r14i;
1 =s30i + s40i + s50i + s60i;
si =30s30i + 40s40i + 50s50i + 60s60i;
ti = 3;
apdi > 100;
apdi < 300;
asi > 0;
asi < 3;
aTempOi > 5;
aTempOi < 25;
fpdi > 100;
fpdi < 300;
fsi > 0;
fsi < 1.25;
fTempOi > 5;
fTempOi < 25;
pi > 0;
ri > 6;
ri < 14;
ci > 1;
ci < 26;
si > 25;
si < 60;
ti > 1;
ti < 3;
fTempIi > 5;
fTempIi < 25;

/* aTempOo < 11.4; */
1 =r6o + r8o + r10o + r12o + r14o;
ro =6r6o + 8r8o + 10r10o + 12r12o + 14r14o;
1 =s25o + s30o + s40o;
so =25s25o + 30s30o + 40s40o;
to = 1;
apdo > 100;
apdo < 300;
aso > 0;
aso < 3;
aTempOo > 5;
aTempOo < 25;
fpdo > 100;
fpdo < 300;
fso > 0;
fso < 1.25;
fTempOo > 5;
fTempOo < 25;
po > 0;
ro > 6;
ro < 14;
co > 1;
co < 22;
so > 25;
so < 60;
to > 1;
to < 3;
fTempIo > 5;
fTempIo < 25;
int hi,li,si,ti,ci,ri,ami;
int ho,lo,so,to,co,ro,amo;
bin s25i,s30i,s40i,s50i,s60i,r6i,r8i,r10i,r12i,r14i;
bin s25o,s30o,s40o,s50o,s60o,r6o,r8o,r10o,r12o,r14o;
